(set-logic ALL)
(declare-fun seed0_T_1 () Bool)
(declare-fun seed0_T_2 () Bool)
(declare-fun seed0_T_3 () Bool)
(declare-fun seed0_T_4 () Bool)
(declare-fun seed0_var_0xINPUT_312975 () String)
(assert (and (or (= seed0_T_1 (= "-" seed0_var_0xINPUT_312975)) (or (str.suffixof (str.++ seed0_var_0xINPUT_312975 "uOUL7bhS2HNjCAPmc") (str.++ seed0_var_0xINPUT_312975 "avOXQ7iAGys3UKS6C")) (str.prefixof (str.++ seed0_var_0xINPUT_312975 "uFhNPcy4v98iRGmr31j") (str.++ seed0_var_0xINPUT_312975 "IsLnlHiQD8Xt")))) (or (= seed0_T_2 (not seed0_T_1)) (str.< (str.++ seed0_var_0xINPUT_312975 "21GhCEmn") (str.++ seed0_var_0xINPUT_312975 "AMvY3BFxirWJTNOnQV"))) (or seed0_T_2 (=> (str.<= (str.++ seed0_var_0xINPUT_312975 "Oen4WMkasyq6ZpD") (str.++ seed0_var_0xINPUT_312975 "KMxJgUS43YB")) (str.contains (str.++ seed0_var_0xINPUT_312975 "KJrRiQCkhZdy6F9ucIoO") (str.++ seed0_var_0xINPUT_312975 "Jgq6TBD7ZQHtIhCpGm")))) (or (= seed0_T_3 (= "" seed0_var_0xINPUT_312975)) (xor (str.suffixof (str.++ seed0_var_0xINPUT_312975 "21LpvYGI3olqyxri") (str.++ seed0_var_0xINPUT_312975 "wEFg1mW0DjyQct")) (str.suffixof (str.++ seed0_var_0xINPUT_312975 "RJSj4zFtL87pfTiPW") (str.++ seed0_var_0xINPUT_312975 "CnOLuVoMgksxlA9R")))) (or (= seed0_T_4 (not seed0_T_3)) (or (str.contains (str.++ seed0_var_0xINPUT_312975 "s60ucLa4PXKj3Iyo") (str.++ seed0_var_0xINPUT_312975 "7RFetoQ3YbDmrcJhX6A8")) (str.<= (str.++ seed0_var_0xINPUT_312975 "NYlTOp7DZG8zSHM") (str.++ seed0_var_0xINPUT_312975 "")))) (or seed0_T_4 (and (str.prefixof (str.++ seed0_var_0xINPUT_312975 "MatLv7d62mRCesi") (str.++ seed0_var_0xINPUT_312975 "xt")) (str.< (str.++ seed0_var_0xINPUT_312975 "pmswSLy5uPi074") (str.++ seed0_var_0xINPUT_312975 "LTxVzkbPp"))))))
(check-sat)
(exit)